50
13175

374 515
931 465
461 366
788 665
32 719
537 709
64 359
606 628
379 573
431 188
653 32
546 705
567 633
248 770
35 244
566 584
525 427
691 384
860 463
915 126
536 143
859 407
704 692
887 270
124 133
685 977
822 562
46 483
941 35
770 677
929 552
356 775
152 39
205 697
151 937
110 449
299 72
98 633
71 660
246 628
316 1000
862 78
681 677
70 62
306 726
309 627
458 727
452 665
895 591
606 59
